45
1000
200	3
199	1
198	3
197	3
196	2
195	1
194	1
193	3
192	3
191	3
189	2
188	1
187	2
186	2
185	3
184	2
183	7
182	1
181	1
180	3
179	4
178	5
177	2
176	5
173	3
172	2
171	3
170	3
168	6
167	1
166	3
165	4
164	2
162	1
161	1
160	2
159	2
157	3
156	4
155	5
154	3
153	2
152	2
151	2
150	3
